
Presolve eliminates 4185264 constraints and 4178180 variables.
Adjusted problem:
1815804 variables:
	1804097 binary variables
	11707 linear variables
1832691 constraints, all linear; 14346457 nonzeros
	23925 equality constraints
	1808766 inequality constraints
1 linear objective; 1792390 nonzeros.

Gurobi 9.1.2: mipgap 0.01
outlev 1
timelim 3600
Gurobi Optimizer version 9.1.2 build v9.1.2rc0 (linux64)
Thread count: 4 physical cores, 4 logical processors, using up to 4 threads
Optimize a model with 1832691 rows, 1815804 columns and 14346457 nonzeros
Model fingerprint: 0xd80038d0
Variable types: 11707 continuous, 1804097 integer (1804097 binary)
Coefficient statistics:
  Matrix range     [4e-02, 1e+02]
  Objective range  [4e+01, 6e+03]
  Bounds range     [1e+00, 1e+02]
  RHS range        [1e+00, 1e+02]
Presolve removed 0 rows and 0 columns (presolve time = 5s) ...
Presolve removed 0 rows and 0 columns (presolve time = 20s) ...
Presolve removed 0 rows and 0 columns (presolve time = 30s) ...
Presolve removed 0 rows and 0 columns (presolve time = 30s) ...
Presolve removed 0 rows and 0 columns (presolve time = 35s) ...
Presolve removed 0 rows and 0 columns (presolve time = 40s) ...
Presolve removed 0 rows and 0 columns (presolve time = 45s) ...
Presolve removed 0 rows and 0 columns (presolve time = 50s) ...
Presolve removed 23414 rows and 0 columns (presolve time = 67s) ...
Presolve removed 23414 rows and 0 columns (presolve time = 73s) ...
Presolve removed 23414 rows and 0 columns (presolve time = 96s) ...
Presolve removed 23414 rows and 0 columns (presolve time = 112s) ...
Presolve removed 23414 rows and 0 columns
Presolve time: 111.54s
Presolved: 1809277 rows, 1815804 columns, 8991620 nonzeros
Variable types: 11707 continuous, 1804097 integer (1804097 binary)

Deterministic concurrent LP optimizer: primal simplex, dual simplex, and barrier
Showing barrier log only...

Root barrier log...

Elapsed ordering time = 58s
Elapsed ordering time = 60s
Elapsed ordering time = 65s
Elapsed ordering time = 70s
Elapsed ordering time = 75s
Elapsed ordering time = 80s
Elapsed ordering time = 85s
Elapsed ordering time = 90s
Elapsed ordering time = 95s
Elapsed ordering time = 100s
Elapsed ordering time = 105s
Elapsed ordering time = 110s
Elapsed ordering time = 115s
Elapsed ordering time = 120s
Elapsed ordering time = 125s
Elapsed ordering time = 130s
Elapsed ordering time = 135s
Elapsed ordering time = 140s
Elapsed ordering time = 145s
Elapsed ordering time = 150s
Elapsed ordering time = 155s
Elapsed ordering time = 160s
Elapsed ordering time = 165s
Elapsed ordering time = 170s
Elapsed ordering time = 175s
Elapsed ordering time = 180s
Elapsed ordering time = 185s
Elapsed ordering time = 190s
Elapsed ordering time = 195s
Elapsed ordering time = 200s
Elapsed ordering time = 205s
Elapsed ordering time = 210s
Elapsed ordering time = 215s
Elapsed ordering time = 220s
Elapsed ordering time = 225s
Elapsed ordering time = 230s
Elapsed ordering time = 235s
Elapsed ordering time = 240s
Elapsed ordering time = 245s
Elapsed ordering time = 250s
Elapsed ordering time = 255s
Elapsed ordering time = 260s
Elapsed ordering time = 265s
Elapsed ordering time = 270s
Elapsed ordering time = 275s
Elapsed ordering time = 280s
Elapsed ordering time = 285s
Elapsed ordering time = 290s
Elapsed ordering time = 295s
Elapsed ordering time = 300s
Elapsed ordering time = 305s
Elapsed ordering time = 310s
Elapsed ordering time = 315s
Elapsed ordering time = 320s
Elapsed ordering time = 325s
Elapsed ordering time = 330s
Elapsed ordering time = 335s
Elapsed ordering time = 340s
Elapsed ordering time = 345s
Elapsed ordering time = 350s
Elapsed ordering time = 355s
Elapsed ordering time = 360s
Elapsed ordering time = 365s
Elapsed ordering time = 370s
Elapsed ordering time = 375s
Elapsed ordering time = 380s
Elapsed ordering time = 385s
Elapsed ordering time = 390s
Elapsed ordering time = 395s
Elapsed ordering time = 400s
Elapsed ordering time = 405s
Elapsed ordering time = 410s
Elapsed ordering time = 415s
Elapsed ordering time = 420s
Elapsed ordering time = 425s
Elapsed ordering time = 430s
Elapsed ordering time = 435s
Elapsed ordering time = 440s
Elapsed ordering time = 445s
Elapsed ordering time = 450s
Elapsed ordering time = 455s
Elapsed ordering time = 460s
Elapsed ordering time = 465s
Elapsed ordering time = 470s
Elapsed ordering time = 475s
Elapsed ordering time = 480s
Elapsed ordering time = 485s
Elapsed ordering time = 490s
Elapsed ordering time = 495s
Elapsed ordering time = 500s
Elapsed ordering time = 505s
Elapsed ordering time = 510s
Elapsed ordering time = 515s
Elapsed ordering time = 520s
Elapsed ordering time = 525s
Elapsed ordering time = 530s
Elapsed ordering time = 535s
Elapsed ordering time = 540s
Elapsed ordering time = 545s
Elapsed ordering time = 550s
Elapsed ordering time = 555s
Elapsed ordering time = 560s
Elapsed ordering time = 565s
Elapsed ordering time = 570s
Elapsed ordering time = 575s
Elapsed ordering time = 580s
Elapsed ordering time = 585s
Elapsed ordering time = 590s
Elapsed ordering time = 595s
Elapsed ordering time = 600s
Elapsed ordering time = 605s
Elapsed ordering time = 610s
Elapsed ordering time = 615s
Elapsed ordering time = 620s
Elapsed ordering time = 625s
Elapsed ordering time = 630s
Elapsed ordering time = 635s
Elapsed ordering time = 640s
Elapsed ordering time = 645s
Elapsed ordering time = 650s
Elapsed ordering time = 655s
Elapsed ordering time = 660s
Elapsed ordering time = 665s
Elapsed ordering time = 670s
Elapsed ordering time = 675s
Elapsed ordering time = 680s
Elapsed ordering time = 685s
Elapsed ordering time = 690s
Elapsed ordering time = 695s
Elapsed ordering time = 700s
Elapsed ordering time = 705s
Elapsed ordering time = 710s
Elapsed ordering time = 715s
Elapsed ordering time = 720s
Elapsed ordering time = 725s
Elapsed ordering time = 730s
Elapsed ordering time = 735s
Elapsed ordering time = 740s
Elapsed ordering time = 745s
Elapsed ordering time = 750s
Elapsed ordering time = 755s
Elapsed ordering time = 760s
Elapsed ordering time = 765s
Elapsed ordering time = 770s
Elapsed ordering time = 775s
Elapsed ordering time = 780s
Elapsed ordering time = 785s
Elapsed ordering time = 790s
Elapsed ordering time = 795s
Elapsed ordering time = 800s
Elapsed ordering time = 805s
Elapsed ordering time = 810s
Elapsed ordering time = 815s
Elapsed ordering time = 822s
Elapsed ordering time = 1222s
Elapsed ordering time = 1758s
Elapsed ordering time = 1766s
Elapsed ordering time = 1773s
Elapsed ordering time = 1780s
Elapsed ordering time = 1787s
Elapsed ordering time = 1792s
Elapsed ordering time = 1798s
Elapsed ordering time = 1802s
Elapsed ordering time = 1807s
Elapsed ordering time = 1813s
Elapsed ordering time = 1818s
Elapsed ordering time = 1824s
Elapsed ordering time = 1830s
Elapsed ordering time = 1837s
Elapsed ordering time = 1842s
Elapsed ordering time = 1848s
Elapsed ordering time = 1854s
Elapsed ordering time = 1857s
Elapsed ordering time = 1864s
Elapsed ordering time = 1871s
Elapsed ordering time = 1877s
Elapsed ordering time = 1883s
Elapsed ordering time = 1890s
Elapsed ordering time = 1903s
Elapsed ordering time = 1907s
Elapsed ordering time = 1911s
Elapsed ordering time = 1918s
Elapsed ordering time = 1922s
Elapsed ordering time = 1925s
Elapsed ordering time = 1932s
Elapsed ordering time = 1937s
Elapsed ordering time = 1942s
Elapsed ordering time = 1948s
Elapsed ordering time = 1952s
Elapsed ordering time = 1955s
Elapsed ordering time = 1962s
Elapsed ordering time = 1968s
Elapsed ordering time = 1971s
Elapsed ordering time = 1978s
Elapsed ordering time = 1985s
Elapsed ordering time = 1992s
Elapsed ordering time = 1995s
Elapsed ordering time = 2000s
Elapsed ordering time = 2006s
Elapsed ordering time = 2011s
Elapsed ordering time = 2016s
Elapsed ordering time = 2024s
Elapsed ordering time = 2026s
Elapsed ordering time = 2079s
Elapsed ordering time = 2080s
Elapsed ordering time = 2085s
Elapsed ordering time = 2090s
Elapsed ordering time = 2095s
Elapsed ordering time = 2100s
Elapsed ordering time = 2105s
Elapsed ordering time = 2110s
Elapsed ordering time = 2115s
Elapsed ordering time = 2120s
Elapsed ordering time = 2125s
Elapsed ordering time = 2130s
Elapsed ordering time = 2135s
Elapsed ordering time = 2140s
Elapsed ordering time = 2145s
Elapsed ordering time = 2150s
Elapsed ordering time = 2155s
Elapsed ordering time = 2160s
Elapsed ordering time = 2165s
Elapsed ordering time = 2170s
Elapsed ordering time = 2175s
Elapsed ordering time = 2180s
Elapsed ordering time = 2185s
Elapsed ordering time = 2190s
Elapsed ordering time = 2195s
Elapsed ordering time = 2200s
Elapsed ordering time = 2205s
Elapsed ordering time = 2210s
Elapsed ordering time = 2215s
Elapsed ordering time = 2220s
Elapsed ordering time = 2225s
Elapsed ordering time = 2230s
Elapsed ordering time = 2235s
Elapsed ordering time = 2240s
Elapsed ordering time = 2245s
Elapsed ordering time = 2250s
Elapsed ordering time = 2255s
Elapsed ordering time = 2260s
Elapsed ordering time = 2265s
Elapsed ordering time = 2270s
Elapsed ordering time = 2275s
Elapsed ordering time = 2280s
Elapsed ordering time = 2285s
Elapsed ordering time = 2290s
Elapsed ordering time = 2295s
Elapsed ordering time = 2300s
Elapsed ordering time = 2305s
Elapsed ordering time = 2310s
Elapsed ordering time = 2315s
Elapsed ordering time = 2320s
Elapsed ordering time = 2325s
Elapsed ordering time = 2330s
Elapsed ordering time = 2335s
Elapsed ordering time = 2340s
Elapsed ordering time = 2345s
Elapsed ordering time = 2350s
Elapsed ordering time = 2355s
Elapsed ordering time = 2360s
Elapsed ordering time = 2365s
Elapsed ordering time = 2370s
Elapsed ordering time = 2375s
Elapsed ordering time = 2380s
Elapsed ordering time = 2385s
Elapsed ordering time = 2390s
Elapsed ordering time = 2395s
Elapsed ordering time = 2400s
Elapsed ordering time = 2405s
Elapsed ordering time = 2410s
Elapsed ordering time = 2415s
Elapsed ordering time = 2420s
Elapsed ordering time = 2425s
Elapsed ordering time = 2430s
Elapsed ordering time = 2435s
Elapsed ordering time = 2440s
Elapsed ordering time = 2445s
Elapsed ordering time = 2450s
Elapsed ordering time = 2455s
Elapsed ordering time = 2460s
Elapsed ordering time = 2465s
Elapsed ordering time = 2470s
Elapsed ordering time = 2475s
Elapsed ordering time = 2480s
Elapsed ordering time = 2485s
Elapsed ordering time = 2490s
Elapsed ordering time = 2495s
Elapsed ordering time = 2500s
Elapsed ordering time = 2505s
Elapsed ordering time = 2510s
Elapsed ordering time = 2515s
Elapsed ordering time = 2520s
Elapsed ordering time = 2525s
Elapsed ordering time = 2530s
Elapsed ordering time = 2535s
Elapsed ordering time = 2540s
Elapsed ordering time = 2545s
Elapsed ordering time = 2550s
Elapsed ordering time = 2555s
Elapsed ordering time = 2560s
Elapsed ordering time = 2565s
Elapsed ordering time = 2570s
Elapsed ordering time = 2575s
Elapsed ordering time = 2580s
Elapsed ordering time = 2585s
Elapsed ordering time = 2590s
Elapsed ordering time = 2595s
Elapsed ordering time = 2600s
Elapsed ordering time = 2605s
Elapsed ordering time = 2610s
Elapsed ordering time = 2615s
Elapsed ordering time = 2620s
Elapsed ordering time = 2625s
Elapsed ordering time = 2630s
Elapsed ordering time = 2635s
Elapsed ordering time = 2640s
Elapsed ordering time = 2645s
Elapsed ordering time = 2952s
Elapsed ordering time = 3120s
Elapsed ordering time = 3126s
Elapsed ordering time = 3133s
Elapsed ordering time = 3138s
Elapsed ordering time = 3145s
Elapsed ordering time = 3151s
Elapsed ordering time = 3157s
Elapsed ordering time = 3161s
Elapsed ordering time = 3167s
Elapsed ordering time = 3174s
Elapsed ordering time = 3180s
Elapsed ordering time = 3185s
Elapsed ordering time = 3190s
Elapsed ordering time = 3195s
Elapsed ordering time = 3202s
Elapsed ordering time = 3432s
Elapsed ordering time = 3700s
Elapsed ordering time = 3868s
Ordering time: 3867.66s

Barrier performed 0 iterations in 4270.79 seconds
Time limit reached

Concurrent spin time: 742.83s (can be avoided by choosing Method=3)

Solved with dual simplex

Root relaxation: objective 1.079831e+05, 101165 iterations, 4033.13 seconds
Total elapsed time = 4303.07s

    Nodes    |    Current Node    |     Objective Bounds      |     Work
 Expl Unexpl |  Obj  Depth IntInf | Incumbent    BestBd   Gap | It/Node Time

     0     0 107983.089    0 2015          - 107983.089      -     - 4334s

Explored 0 nodes (101165 simplex iterations) in 4335.42 seconds
Thread count was 4 (of 4 available processors)

Solution count 0

Time limit reached
Best objective -, best bound 1.079830889930e+05, gap -
Gurobi 9.1.2: time limit without a feasible solution
101165 simplex iterations
No basis.
No primal or dual variables returned.
sum{(i,j) in Arcs, k in K: i != j} c[i,j]*x[i,j,k] + sum{(i,j) in Arcs, 
  k in K} cto[i,j]*x[i,j,k] = 0

sum{(i,j) in Arcs, k in K: i != j} c[i,j]*x[i,j,k] = 0

sum{(i,j) in Arcs, k in K: i != j} cto[i,j]*x[i,j,k] = 0

COST = 0

